Test: fpga13_12_sat.cnf
Options: -no-inverting-opt -sym-var-bump
WARNING: for repeatability, setting FPU to use double precision
============================[ Problem Statistics ]=============================
|                                                                             |
|  Number of symmetries:           32                                         |
|  Number of invertingSyms:         0                                         |
|  Number of variables:           234                                         |
|  Number of clauses:            1242                                         |
|  Parse time:                   0.00 s                                       |
|                                                                             |
============================[ Search Statistics ]==============================
| Conflicts |          ORIGINAL         |          LEARNT          | Progress |
|           |    Vars  Clauses Literals |    Limit  Clauses Lit/Cl |          |
===============================================================================
|       100 |     234     1242     3396 |      455      224     40 |  0.002 % |
===============================================================================
restarts              : 3
conflicts             : 228            (57000 /sec)
symconflicts          : 34             (8500 /sec)
decisions             : 714            (0.00 % random) (178500 /sec)
propagations          : 5067           (1266750 /sec)
sympropagations       : 244            (61000 /sec)
conflict literals     : 7598           (1.62 % deleted)
literals     : 7598           (1.62 % deleted)

HEURISTIC USAGES
random                : 0           
activity w/ lookahead : 0           
activity no lookahead : 0           
original sp           : 713         
sym count             : 0           

Memory used           : 6.00 MB
CPU time              : 0.004 s

SATISFIABLE
